0x676aecc97bf721c3cb3329a22d49c0ea0ed375f7 - Cobie
0x9c5083dd4838e120dbeac44c052179692aa5dac5 - Tetra
0xca86d57519dbfe34a25eef0923b259ab07986b71 - Messiah
0xc7331842cd079598093b17ef123f795f96112ae8 - Icebergy
0x25599b4c5d678299680c84f904001aa7661d77f7 - Gcr
0x8dbbca57ea56290efa14d835bbfd34faf1d89753 - Von mises
0xdd709cae362972cb3b92dcead77127f7b8d58202 - Arthur0x
0xa86e3d1c80a750a310b484fb9bdc470753a7506f - Arthur hayes
0x54be3a794282c030b15e43ae2bb182e14c409c5e - Dingaling
0x67ee5e30eb775c208a89396565a5da9ea66cc0c7 - Scott melker
0xaae99871b32a731ddeaeee18517e365ebe44f395 - Kinnig
0x39de56518e136d472ef9645e7d6e1f7c6c8ed37b - Cryptoyieldinfo
0xf0d6999725115e3ead3d927eb3329d63afaec09b - Gmoney
0x72ba1965320ab5352fd6d68235cc3c5306a6ffa2 - Nanexcool
0x983110309620d911731ac0932219af06091b6744 - Brantly millegan
0x8d07d225a769b7af3a923481e1fdf49180e6a265 - Monet supply
0xc6b0562605d35ee710138402b878ffe6f2e23807 - Beeple
0x293ed38530005620e4b28600f196a97e1125daac - Mark cuban
0x4bbeeb066ed09b7aed07bf39eee0460dfa261520 - Mycrypto
0xf30026fe8a2c0d01b70b1949ceaf2e09efd8b4a5 - 3ac
0x293ed38530005620e4b28600f196a97e1125daac - A16z
0xe5d0ef77aed07c302634dc370537126a2cd26590 - Alameda
0xdbf5e9c5206d0db70a90108bf936da60221dc080 - Wintermute
0x58f5f0684c381fcfc203d77b2bba468ebb29b098 - Blocktower
0xafa64cca337efee0ad827f6c2684e69275226e90 - Cms
0xf584f8728b874a6a5c7a8d4d387c9aae9172d621 - jump capital
0xd3f03984a90fd15e909b2e9467e98cadea181da3 - Paradigm
0xe05a884d4653289916d54ce6ae0967707c519879 - Arca
0x9b5ea8c719e29a5bd0959faf79c9e5c8206d0499 - Defiance
0xe7dbe6aa7edcc38cb5007b87153d236ad879309b - Parafi
0xf3537ac805e1ce18aa9f61a4b1dcd04f10a007e9 - Blockwater
0xd2db6c5e613c0e1ce63c7a15045e8d163a3fc576 - element finance
0xbcd5000f5c522856e710c5d274bb672b2f2eefbf - Polychain
0x641ce4240508eae5dcaeffe991f80941d683ad64 - Dragonfly capital
0x2c72a98b4ef2b61e53fd5897e12244384209afcc - delphi digital
0xd1006b037523acc29abf7f8791735b2f360b9502 - Egirl capital
0xfcfbf39d5211498afd8a00c07aad44a2a96118d0 - Egirl capital
0xe3ee7c2eb93d6f0267c31ab7ab57a617e4aa12d5 - Egirl capital
0x6af3d183d225725d975c5eaa08d442dd01aad8ff - mechanism capital
0xccd72bea12f3927063be3d8798a4b74082713cb5 - nascent capital
0xb8a9a55c04e88c4a2ece06d794bcb6574706f1c4 - sequoia capital
0xb156d2d9cadb12a252a9015078fc5cb7e92e656e - stacked ventures
0xfad531c62757cf18391e48ee0959ab9ba106decc - binance labs
0x00514112b64626360445d45dae83327c989face2 - fenbushi capital
0x681148725731f213b0187a3cbef215c291d85a3e - framework ventures
0x67e3ea119e141406c37e2ca783b749fe1437673f - robot ventures
0x54b55662901af57b31fb6b52af8175b652a5816e - spartan group
0xAf2358e98683265cBd3a48509123d390dDf54534 - smart money memecoin
0x681ada67950d96DCc9F2951d32353663Ed6e59c9 - smart money memecoin
0xb8FF0c0a13Ae9373293888b664AE5653725E2054 - smart money memecoin
0xD4B69e8D62C880E9DD55d419d5E07435C3538342 - dwf labs
0xFaDEDfAcE333850bd98f934b20B8BD62D8baf784 - fadeface
0x38A4D889a1979133FbC1D58F970f0953E3715c26 - vombatus
0xae2Fc483527B8EF99EB5D9B44875F005ba1FaE13 - jaredfromsubway.eth
0x287e2c76Aab4720786076c3DEedD7Dd386092050 - rogerlim
0x72bdfeae1366f7986734aa2624eb2c3a6552da31 - rogerlim
0x4a2C786651229175407d3A2D405d1998bcf40614 - rogerlim
0x25CD302E37a69D70a6Ef645dAea5A7de38c66E2a - rogerlim
0x069985cc108aC48847bCC9b3FAEe6e71aE8CCF33 - rogerlim
0xc48919db16ad29af3ce5dceae83be3cf1836e52e - rogerlim
0x9fbd11d42a9c81c3c13a27bbb397993baa8102e3 - rogerlim
0xaf2358e98683265cbd3a48509123d390ddf54534 - rogerlim
0x9e037b0d29daa93510fe095043506cb62272f890 - rogerlim
0x770c04f124dfca403dcea65427cb60d262cde7a2 - rogerlim
0x4f53797f9b48cafb26bb8ecf90e71123a8b0d43e - rogerlim
0x07c2af75788814ba7e5225b2f5c951ed161cb589 - leishen
0x287e2c76aab4720786076c3deedd7dd386092050 - rogerlim
0x13b3a50f3947476eda74fe191344524e2d2d28e5 - rogerlim
0x4dbe965abcb9ebc4c6e9d95aeb631e5b58e70d5b - sisyphus
0x9e037b0d29daa93510fe095043506cb62272f890 - sisyphus
0xd266d61ac22c2a2ac2dd832e79c14ea152c998d6 - master ventures
0x9Cd6140c2De8AF7595629bCcA099497f0c28B2A9 - master ventures
0x9e037b0D29daA93510Fe095043506cb62272f890 - master ventures
0x114794178cd4318888f44cc0924a2da3636ac16a - master ventures